%%%mzn-stat: initTime=0.02276897
%%%mzn-stat: objective=219
%%%mzn-stat: nodes=99042
%%%mzn-stat: restarts=109
%%%mzn-stat: peakDepth=918
%%%mzn-stat: solveTime=24.017334706
%%%mzn-stat: variables=1778
%%%mzn-stat: propagators=6364
%%%mzn-stat: failures=53181
%%%mzn-stat: propagations=26827804
%%%mzn-stat: nogoods=53181
%%%mzn-stat: AverageConflictSize=19.021229386435007
%%%mzn-stat: NumUnitNogoodsLearned=138
%%%mzn-stat: AverageLearnedNogoodLength=62.98896222335045
%%%mzn-stat: AverageBacktrackAmount=0
%%%mzn-stat: AverageLbd=14.11411970440571
%%%mzn-stat-end
maxleg = 219;
succ = array1d(1..100,[75, 5, 19, 93, 29, 57, 13, 14, 81, 70, 94, 77, 71, 37, 47, 90, 97, 15, 40, 63, 89, 45, 21, 73, 67, 4, 74, 54, 27, 41, 87, 91, 56, 64, 42, 1, 96, 88, 25, 30, 62, 48, 7, 3, 55, 31, 24, 6, 79, 86, 2, 59, 12, 53, 39, 69, 43, 36, 65, 11, 50, 9, 8, 38, 72, 20, 78, 10, 95, 76, 60, 33, 34, 98, 18, 52, 92, 26, 46, 49, 32, 83, 84, 23, 100, 82, 66, 85, 44, 22, 28, 17, 58, 80, 51, 68, 99, 61, 16, 35]);
% time elapsed: 25.35 s
----------
%%%mzn-stat: initTime=0.02276897
%%%mzn-stat: objective=211
%%%mzn-stat: nodes=140327
%%%mzn-stat: restarts=125
%%%mzn-stat: peakDepth=987
%%%mzn-stat: solveTime=36.691547789
%%%mzn-stat: variables=1778
%%%mzn-stat: propagators=6364
%%%mzn-stat: failures=80162
%%%mzn-stat: propagations=39867615
%%%mzn-stat: nogoods=80162
%%%mzn-stat: AverageConflictSize=21.768743294827974
%%%mzn-stat: NumUnitNogoodsLearned=138
%%%mzn-stat: AverageLearnedNogoodLength=66.9447868067164
%%%mzn-stat: AverageBacktrackAmount=0
%%%mzn-stat: AverageLbd=13.209750255732143
%%%mzn-stat-end
maxleg = 211;
succ = array1d(1..100,[75, 5, 19, 93, 29, 57, 13, 14, 81, 70, 95, 77, 71, 37, 47, 90, 97, 15, 40, 63, 89, 45, 21, 73, 87, 4, 74, 54, 27, 41, 67, 91, 56, 64, 42, 1, 96, 88, 25, 30, 62, 48, 7, 3, 55, 31, 24, 6, 79, 86, 69, 59, 12, 53, 39, 51, 43, 36, 65, 11, 50, 9, 8, 38, 72, 20, 78, 10, 94, 76, 60, 33, 34, 98, 18, 52, 92, 26, 46, 49, 32, 83, 84, 23, 100, 82, 66, 85, 44, 22, 28, 17, 58, 80, 2, 68, 99, 61, 16, 35]);
% time elapsed: 38.02 s
----------
%%%mzn-stat: initTime=0.02276897
%%%mzn-stat: objective=210
%%%mzn-stat: nodes=150662
%%%mzn-stat: restarts=127
%%%mzn-stat: peakDepth=987
%%%mzn-stat: solveTime=40.841594592999996
%%%mzn-stat: variables=1778
%%%mzn-stat: propagators=6364
%%%mzn-stat: failures=86792
%%%mzn-stat: propagations=42382369
%%%mzn-stat: nogoods=86792
%%%mzn-stat: AverageConflictSize=22.851749009125264
%%%mzn-stat: NumUnitNogoodsLearned=138
%%%mzn-stat: AverageLearnedNogoodLength=70.84572310812057
%%%mzn-stat: AverageBacktrackAmount=0
%%%mzn-stat: AverageLbd=13.111657756475251
%%%mzn-stat-end
maxleg = 210;
succ = array1d(1..100,[75, 5, 19, 93, 29, 57, 13, 14, 81, 70, 95, 77, 71, 37, 47, 90, 97, 15, 40, 63, 89, 45, 21, 73, 46, 4, 74, 54, 27, 41, 87, 91, 56, 64, 42, 1, 96, 88, 25, 30, 62, 48, 7, 3, 55, 31, 24, 6, 79, 86, 69, 59, 12, 53, 39, 51, 43, 36, 65, 11, 50, 9, 8, 38, 72, 20, 78, 10, 94, 76, 60, 33, 34, 98, 18, 52, 92, 26, 67, 49, 32, 83, 84, 23, 100, 82, 66, 85, 44, 22, 28, 17, 58, 80, 2, 68, 99, 61, 16, 35]);
% time elapsed: 42.18 s
----------
%%%mzn-stat: initTime=0.02276897
%%%mzn-stat: objective=209
%%%mzn-stat: nodes=152704
%%%mzn-stat: restarts=128
%%%mzn-stat: peakDepth=1078
%%%mzn-stat: solveTime=41.225265526
%%%mzn-stat: variables=1778
%%%mzn-stat: propagators=6364
%%%mzn-stat: failures=87301
%%%mzn-stat: propagations=42627763
%%%mzn-stat: nogoods=87301
%%%mzn-stat: AverageConflictSize=23.053092175347363
%%%mzn-stat: NumUnitNogoodsLearned=138
%%%mzn-stat: AverageLearnedNogoodLength=71.23050136882739
%%%mzn-stat: AverageBacktrackAmount=0
%%%mzn-stat: AverageLbd=13.106127077582158
%%%mzn-stat-end
maxleg = 209;
succ = array1d(1..100,[75, 5, 19, 93, 29, 57, 13, 14, 81, 70, 95, 77, 71, 37, 47, 90, 97, 15, 40, 63, 89, 45, 21, 73, 46, 4, 74, 54, 27, 41, 87, 91, 56, 64, 42, 1, 96, 88, 25, 30, 62, 48, 7, 3, 55, 31, 24, 6, 79, 86, 69, 59, 12, 53, 39, 51, 43, 36, 65, 11, 50, 9, 8, 38, 72, 20, 78, 10, 94, 76, 60, 33, 34, 98, 18, 52, 92, 26, 67, 49, 32, 83, 84, 23, 100, 82, 66, 85, 44, 22, 28, 17, 58, 80, 2, 68, 99, 61, 16, 35]);
% time elapsed: 42.57 s
----------
%%%mzn-stat: initTime=0.02276897
%%%mzn-stat: objective=201
%%%mzn-stat: nodes=183780
%%%mzn-stat: restarts=163
%%%mzn-stat: peakDepth=1078
%%%mzn-stat: solveTime=47.453254582
%%%mzn-stat: variables=1778
%%%mzn-stat: propagators=6364
%%%mzn-stat: failures=104808
%%%mzn-stat: propagations=49599448
%%%mzn-stat: nogoods=104808
%%%mzn-stat: AverageConflictSize=21.374694679795436
%%%mzn-stat: NumUnitNogoodsLearned=138
%%%mzn-stat: AverageLearnedNogoodLength=66.56604457674986
%%%mzn-stat: AverageBacktrackAmount=0
%%%mzn-stat: AverageLbd=12.928574154644684
%%%mzn-stat-end
maxleg = 201;
succ = array1d(1..100,[75, 5, 19, 93, 29, 57, 13, 14, 81, 96, 26, 77, 80, 37, 47, 55, 97, 15, 40, 63, 71, 45, 21, 73, 87, 4, 74, 91, 27, 50, 25, 12, 56, 64, 34, 1, 68, 88, 90, 30, 62, 48, 7, 3, 28, 31, 24, 6, 67, 86, 69, 59, 41, 53, 39, 51, 43, 36, 65, 11, 89, 9, 8, 38, 72, 20, 46, 10, 95, 76, 60, 33, 35, 98, 18, 52, 92, 16, 49, 94, 32, 83, 84, 23, 100, 82, 66, 85, 44, 22, 54, 17, 58, 78, 2, 70, 99, 61, 79, 42]);
% time elapsed: 48.80 s
----------
%%%mzn-stat: initTime=0.02276897
%%%mzn-stat: objective=200
%%%mzn-stat: nodes=186546
%%%mzn-stat: restarts=165
%%%mzn-stat: peakDepth=1078
%%%mzn-stat: solveTime=47.871396315
%%%mzn-stat: variables=1778
%%%mzn-stat: propagators=6364
%%%mzn-stat: failures=105357
%%%mzn-stat: propagations=49858127
%%%mzn-stat: nogoods=105357
%%%mzn-stat: AverageConflictSize=21.454900955797907
%%%mzn-stat: NumUnitNogoodsLearned=138
%%%mzn-stat: AverageLearnedNogoodLength=67.02933834486555
%%%mzn-stat: AverageBacktrackAmount=0
%%%mzn-stat: AverageLbd=12.93749822033657
%%%mzn-stat-end
maxleg = 200;
succ = array1d(1..100,[75, 5, 19, 93, 29, 57, 13, 14, 81, 96, 26, 77, 80, 37, 47, 45, 28, 15, 40, 63, 71, 17, 21, 73, 87, 4, 74, 91, 27, 50, 25, 12, 56, 64, 34, 1, 68, 88, 90, 30, 62, 48, 7, 3, 55, 31, 24, 6, 67, 86, 69, 59, 41, 53, 39, 51, 43, 36, 65, 11, 89, 9, 8, 38, 72, 20, 46, 10, 95, 76, 60, 33, 35, 98, 18, 52, 92, 16, 49, 94, 32, 83, 84, 23, 100, 82, 66, 85, 44, 22, 54, 97, 58, 78, 2, 70, 99, 61, 79, 42]);
% time elapsed: 49.23 s
----------
%%%mzn-stat: initTime=0.02276897
%%%mzn-stat: objective=199
%%%mzn-stat: nodes=188247
%%%mzn-stat: restarts=166
%%%mzn-stat: peakDepth=1078
%%%mzn-stat: solveTime=48.130260083
%%%mzn-stat: variables=1778
%%%mzn-stat: propagators=6364
%%%mzn-stat: failures=105771
%%%mzn-stat: propagations=50063909
%%%mzn-stat: nogoods=105771
%%%mzn-stat: AverageConflictSize=21.47648221157028
%%%mzn-stat: NumUnitNogoodsLearned=138
%%%mzn-stat: AverageLearnedNogoodLength=67.1672008395496
%%%mzn-stat: AverageBacktrackAmount=0
%%%mzn-stat: AverageLbd=12.934310916981024
%%%mzn-stat-end
maxleg = 199;
succ = array1d(1..100,[75, 5, 19, 93, 29, 57, 13, 14, 81, 96, 26, 77, 80, 37, 47, 45, 28, 15, 40, 63, 71, 17, 21, 73, 87, 4, 74, 91, 27, 50, 25, 12, 56, 64, 34, 1, 68, 88, 90, 30, 62, 48, 7, 3, 55, 31, 24, 6, 67, 86, 69, 59, 41, 53, 39, 51, 43, 36, 65, 11, 89, 9, 8, 38, 72, 20, 46, 10, 95, 76, 60, 33, 35, 98, 18, 52, 92, 16, 49, 94, 32, 83, 84, 23, 100, 82, 66, 85, 44, 22, 54, 97, 58, 78, 2, 70, 99, 61, 79, 42]);
% time elapsed: 49.49 s
----------
%%%mzn-stat: initTime=0.02276897
%%%mzn-stat: objective=197
%%%mzn-stat: nodes=221426
%%%mzn-stat: restarts=199
%%%mzn-stat: peakDepth=1078
%%%mzn-stat: solveTime=54.372660131
%%%mzn-stat: variables=1778
%%%mzn-stat: propagators=6364
%%%mzn-stat: failures=123654
%%%mzn-stat: propagations=57188786
%%%mzn-stat: nogoods=123654
%%%mzn-stat: AverageConflictSize=20.20836365988969
%%%mzn-stat: NumUnitNogoodsLearned=138
%%%mzn-stat: AverageLearnedNogoodLength=62.84584404871658
%%%mzn-stat: AverageBacktrackAmount=0
%%%mzn-stat: AverageLbd=12.656727643262652
%%%mzn-stat-end
maxleg = 197;
succ = array1d(1..100,[75, 5, 19, 93, 29, 57, 98, 14, 81, 96, 13, 77, 80, 37, 35, 45, 28, 15, 40, 63, 71, 17, 21, 73, 87, 49, 2, 91, 34, 50, 25, 12, 56, 64, 47, 1, 68, 88, 90, 30, 62, 48, 7, 3, 55, 31, 24, 6, 8, 86, 69, 59, 41, 53, 39, 51, 43, 36, 65, 11, 89, 9, 79, 38, 72, 20, 46, 10, 95, 76, 60, 33, 74, 27, 18, 52, 92, 67, 16, 94, 32, 83, 84, 23, 100, 82, 66, 85, 44, 22, 54, 97, 58, 78, 4, 70, 99, 61, 26, 42]);
% time elapsed: 55.74 s
----------
%%%mzn-stat: initTime=0.02276897
%%%mzn-stat: objective=196
%%%mzn-stat: nodes=231860
%%%mzn-stat: restarts=216
%%%mzn-stat: peakDepth=1078
%%%mzn-stat: solveTime=55.923748978
%%%mzn-stat: variables=1778
%%%mzn-stat: propagators=6364
%%%mzn-stat: failures=127468
%%%mzn-stat: propagations=58893557
%%%mzn-stat: nogoods=127468
%%%mzn-stat: AverageConflictSize=20.045995857783915
%%%mzn-stat: NumUnitNogoodsLearned=138
%%%mzn-stat: AverageLearnedNogoodLength=62.31742868798444
%%%mzn-stat: AverageBacktrackAmount=0
%%%mzn-stat: AverageLbd=12.675094925785295
%%%mzn-stat-end
maxleg = 196;
succ = array1d(1..100,[75, 5, 19, 69, 29, 57, 98, 14, 81, 96, 13, 77, 23, 37, 35, 45, 28, 15, 40, 25, 71, 17, 84, 73, 87, 49, 2, 91, 34, 86, 20, 12, 56, 64, 47, 1, 68, 88, 90, 30, 62, 48, 7, 3, 55, 31, 24, 6, 8, 82, 93, 59, 41, 53, 39, 51, 43, 36, 65, 11, 89, 9, 79, 38, 72, 63, 46, 10, 95, 76, 60, 33, 74, 27, 18, 52, 92, 67, 16, 94, 32, 83, 21, 4, 100, 50, 66, 85, 44, 22, 54, 97, 58, 78, 80, 70, 99, 61, 26, 42]);
% time elapsed: 57.30 s
----------
%%%mzn-stat: initTime=0.02276897
%%%mzn-stat: objective=195
%%%mzn-stat: nodes=239059
%%%mzn-stat: restarts=225
%%%mzn-stat: peakDepth=1078
%%%mzn-stat: solveTime=56.531033848999996
%%%mzn-stat: variables=1778
%%%mzn-stat: propagators=6364
%%%mzn-stat: failures=128764
%%%mzn-stat: propagations=59550051
%%%mzn-stat: nogoods=128764
%%%mzn-stat: AverageConflictSize=19.954630176136188
%%%mzn-stat: NumUnitNogoodsLearned=138
%%%mzn-stat: AverageLearnedNogoodLength=62.05762480196328
%%%mzn-stat: AverageBacktrackAmount=0
%%%mzn-stat: AverageLbd=12.706307663632693
%%%mzn-stat-end
maxleg = 195;
succ = array1d(1..100,[75, 5, 19, 69, 29, 61, 98, 14, 81, 96, 13, 77, 23, 37, 35, 45, 28, 15, 40, 25, 71, 17, 84, 73, 87, 49, 2, 91, 34, 86, 20, 12, 56, 64, 47, 1, 68, 88, 90, 30, 62, 48, 7, 3, 55, 31, 24, 6, 8, 82, 93, 59, 41, 53, 39, 51, 43, 36, 65, 11, 89, 9, 79, 38, 72, 63, 46, 10, 95, 76, 60, 33, 74, 27, 18, 52, 92, 67, 16, 94, 32, 83, 21, 4, 57, 50, 66, 85, 44, 22, 54, 97, 58, 78, 80, 70, 99, 100, 26, 42]);
% time elapsed: 57.91 s
----------
%%%mzn-stat: initTime=0.02276897
%%%mzn-stat: objective=194
%%%mzn-stat: nodes=243612
%%%mzn-stat: restarts=226
%%%mzn-stat: peakDepth=1078
%%%mzn-stat: solveTime=57.931679758
%%%mzn-stat: variables=1778
%%%mzn-stat: propagators=6364
%%%mzn-stat: failures=131368
%%%mzn-stat: propagations=60565919
%%%mzn-stat: nogoods=131368
%%%mzn-stat: AverageConflictSize=20.117669447658486
%%%mzn-stat: NumUnitNogoodsLearned=138
%%%mzn-stat: AverageLearnedNogoodLength=62.57517051336703
%%%mzn-stat: AverageBacktrackAmount=0
%%%mzn-stat: AverageLbd=12.67513397478838
%%%mzn-stat-end
maxleg = 194;
succ = array1d(1..100,[75, 5, 19, 69, 29, 61, 98, 14, 81, 96, 13, 77, 23, 37, 35, 45, 28, 15, 40, 25, 71, 17, 84, 73, 87, 49, 2, 91, 34, 89, 20, 12, 59, 64, 47, 1, 68, 88, 90, 30, 62, 48, 7, 3, 55, 31, 24, 6, 8, 82, 93, 76, 41, 53, 39, 51, 43, 36, 65, 11, 86, 9, 79, 38, 70, 63, 46, 10, 95, 52, 60, 33, 74, 27, 18, 56, 92, 67, 16, 94, 32, 83, 21, 4, 57, 44, 66, 85, 50, 22, 54, 97, 58, 78, 80, 72, 99, 100, 26, 42]);
% time elapsed: 59.32 s
----------
%%%mzn-stat: initTime=0.02276897
%%%mzn-stat: objective=193
%%%mzn-stat: nodes=247749
%%%mzn-stat: restarts=229
%%%mzn-stat: peakDepth=1078
%%%mzn-stat: solveTime=59.134465907
%%%mzn-stat: variables=1778
%%%mzn-stat: propagators=6364
%%%mzn-stat: failures=133385
%%%mzn-stat: propagations=61467363
%%%mzn-stat: nogoods=133385
%%%mzn-stat: AverageConflictSize=20.205637815346552
%%%mzn-stat: NumUnitNogoodsLearned=138
%%%mzn-stat: AverageLearnedNogoodLength=63.24131648986018
%%%mzn-stat: AverageBacktrackAmount=0
%%%mzn-stat: AverageLbd=12.649585785508116
%%%mzn-stat-end
maxleg = 193;
succ = array1d(1..100,[75, 5, 83, 69, 29, 61, 98, 14, 81, 96, 13, 92, 23, 37, 35, 45, 77, 15, 40, 25, 71, 17, 84, 73, 87, 49, 2, 91, 34, 41, 20, 28, 59, 64, 47, 1, 68, 88, 90, 89, 62, 48, 19, 30, 55, 31, 24, 6, 8, 82, 93, 76, 12, 53, 39, 51, 43, 36, 65, 7, 86, 9, 79, 38, 70, 63, 46, 10, 95, 52, 60, 33, 74, 27, 18, 56, 26, 67, 16, 94, 32, 3, 21, 4, 57, 44, 66, 85, 50, 22, 54, 97, 58, 78, 80, 72, 99, 100, 11, 42]);
% time elapsed: 60.53 s
----------
%%%mzn-stat: initTime=0.02276897
%%%mzn-stat: objective=192
%%%mzn-stat: nodes=250140
%%%mzn-stat: restarts=230
%%%mzn-stat: peakDepth=1078
%%%mzn-stat: solveTime=59.761409649
%%%mzn-stat: variables=1778
%%%mzn-stat: propagators=6364
%%%mzn-stat: failures=134276
%%%mzn-stat: propagations=61832234
%%%mzn-stat: nogoods=134276
%%%mzn-stat: AverageConflictSize=20.336158360392027
%%%mzn-stat: NumUnitNogoodsLearned=138
%%%mzn-stat: AverageLearnedNogoodLength=63.60243826149126
%%%mzn-stat: AverageBacktrackAmount=0
%%%mzn-stat: AverageLbd=12.647442580952665
%%%mzn-stat-end
maxleg = 192;
succ = array1d(1..100,[75, 5, 83, 69, 29, 61, 98, 14, 81, 96, 13, 92, 23, 37, 35, 45, 77, 15, 40, 25, 71, 17, 84, 73, 87, 49, 2, 91, 34, 41, 20, 28, 59, 64, 47, 1, 68, 88, 55, 89, 62, 48, 19, 30, 97, 31, 24, 6, 8, 82, 93, 76, 12, 53, 22, 51, 43, 36, 65, 7, 86, 9, 79, 38, 70, 63, 46, 10, 95, 52, 60, 33, 74, 27, 18, 56, 26, 67, 16, 94, 32, 3, 21, 4, 57, 44, 66, 85, 50, 39, 54, 99, 58, 78, 80, 72, 90, 100, 11, 42]);
% time elapsed: 61.16 s
----------
%%%mzn-stat: initTime=0.02276897
%%%mzn-stat: objective=191
%%%mzn-stat: nodes=252101
%%%mzn-stat: restarts=231
%%%mzn-stat: peakDepth=1078
%%%mzn-stat: solveTime=60.311966286
%%%mzn-stat: variables=1778
%%%mzn-stat: propagators=6364
%%%mzn-stat: failures=134913
%%%mzn-stat: propagations=62111778
%%%mzn-stat: nogoods=134913
%%%mzn-stat: AverageConflictSize=20.55789286429032
%%%mzn-stat: NumUnitNogoodsLearned=138
%%%mzn-stat: AverageLearnedNogoodLength=64.23041515643415
%%%mzn-stat: AverageBacktrackAmount=0
%%%mzn-stat: AverageLbd=12.646372106468613
%%%mzn-stat-end
maxleg = 191;
succ = array1d(1..100,[75, 5, 83, 69, 29, 61, 98, 14, 81, 96, 13, 92, 23, 37, 35, 97, 77, 15, 40, 25, 71, 17, 84, 73, 87, 11, 2, 91, 34, 41, 20, 28, 59, 64, 47, 1, 68, 88, 55, 89, 62, 48, 19, 30, 16, 31, 24, 6, 8, 82, 93, 76, 12, 53, 22, 51, 43, 36, 65, 7, 86, 9, 79, 38, 70, 63, 46, 10, 95, 52, 60, 33, 74, 27, 18, 56, 26, 67, 49, 94, 32, 3, 21, 4, 57, 44, 66, 85, 50, 39, 54, 99, 58, 78, 80, 72, 90, 100, 45, 42]);
% time elapsed: 61.72 s
----------
%%%mzn-stat: initTime=0.02276897
%%%mzn-stat: objective=187
%%%mzn-stat: nodes=361823
%%%mzn-stat: restarts=264
%%%mzn-stat: peakDepth=1078
%%%mzn-stat: solveTime=94.365100242
%%%mzn-stat: variables=1778
%%%mzn-stat: propagators=6364
%%%mzn-stat: failures=224545
%%%mzn-stat: propagations=108817928
%%%mzn-stat: nogoods=224545
%%%mzn-stat: AverageConflictSize=18.148638357567524
%%%mzn-stat: NumUnitNogoodsLearned=138
%%%mzn-stat: AverageLearnedNogoodLength=50.8469705404262
%%%mzn-stat: AverageBacktrackAmount=0
%%%mzn-stat: AverageLbd=11.289233783874057
%%%mzn-stat-end
maxleg = 187;
succ = array1d(1..100,[75, 5, 83, 69, 29, 61, 98, 49, 81, 96, 13, 92, 23, 70, 35, 79, 77, 15, 40, 25, 71, 16, 84, 38, 87, 11, 2, 91, 34, 41, 20, 28, 59, 64, 73, 1, 68, 88, 55, 89, 62, 48, 19, 30, 90, 31, 85, 6, 26, 82, 93, 76, 12, 53, 22, 33, 43, 36, 65, 7, 86, 9, 78, 24, 72, 63, 46, 14, 95, 52, 60, 10, 74, 27, 18, 56, 45, 67, 66, 94, 32, 3, 21, 4, 57, 44, 37, 47, 50, 39, 54, 99, 58, 51, 80, 8, 17, 100, 97, 42]);
% time elapsed: 95.79 s
----------
%%%mzn-stat: initTime=0.02276897
%%%mzn-stat: objective=186
%%%mzn-stat: nodes=363352
%%%mzn-stat: restarts=265
%%%mzn-stat: peakDepth=1078
%%%mzn-stat: solveTime=94.428681868
%%%mzn-stat: variables=1778
%%%mzn-stat: propagators=6364
%%%mzn-stat: failures=224605
%%%mzn-stat: propagations=108873274
%%%mzn-stat: nogoods=224605
%%%mzn-stat: AverageConflictSize=18.147138309476638
%%%mzn-stat: NumUnitNogoodsLearned=138
%%%mzn-stat: AverageLearnedNogoodLength=50.845533269517595
%%%mzn-stat: AverageBacktrackAmount=0
%%%mzn-stat: AverageLbd=11.289481534249015
%%%mzn-stat-end
maxleg = 186;
succ = array1d(1..100,[75, 5, 83, 11, 29, 61, 98, 49, 81, 96, 13, 92, 23, 70, 35, 79, 77, 15, 40, 25, 71, 16, 84, 38, 87, 80, 2, 91, 34, 41, 20, 28, 59, 64, 73, 1, 68, 88, 55, 89, 62, 48, 19, 30, 90, 31, 85, 6, 26, 82, 93, 76, 12, 53, 22, 33, 43, 51, 65, 4, 86, 9, 78, 24, 72, 63, 46, 14, 95, 52, 60, 10, 74, 27, 18, 56, 45, 67, 66, 94, 32, 3, 21, 7, 57, 44, 37, 47, 50, 39, 54, 99, 36, 69, 58, 8, 17, 100, 97, 42]);
% time elapsed: 95.85 s
----------
%%%mzn-stat: initTime=0.02276897
%%%mzn-stat: objective=185
%%%mzn-stat: nodes=364552
%%%mzn-stat: restarts=266
%%%mzn-stat: peakDepth=1078
%%%mzn-stat: solveTime=94.538519743
%%%mzn-stat: variables=1778
%%%mzn-stat: propagators=6364
%%%mzn-stat: failures=224805
%%%mzn-stat: propagations=108995971
%%%mzn-stat: nogoods=224805
%%%mzn-stat: AverageConflictSize=18.144414047730255
%%%mzn-stat: NumUnitNogoodsLearned=138
%%%mzn-stat: AverageLearnedNogoodLength=50.85850848513156
%%%mzn-stat: AverageBacktrackAmount=0
%%%mzn-stat: AverageLbd=11.289726651987278
%%%mzn-stat-end
maxleg = 185;
succ = array1d(1..100,[75, 5, 83, 11, 29, 61, 98, 49, 81, 96, 13, 92, 23, 70, 35, 79, 77, 15, 40, 25, 71, 16, 84, 38, 87, 80, 2, 91, 34, 41, 20, 28, 59, 64, 73, 1, 68, 88, 55, 89, 62, 48, 19, 30, 90, 31, 85, 6, 26, 82, 93, 76, 12, 53, 22, 33, 43, 51, 65, 4, 86, 9, 78, 24, 72, 63, 46, 14, 95, 52, 60, 10, 74, 27, 18, 56, 45, 67, 66, 94, 32, 3, 21, 7, 57, 44, 37, 47, 50, 39, 54, 99, 36, 69, 58, 8, 17, 100, 97, 42]);
% time elapsed: 95.97 s
----------
%%%mzn-stat: initTime=0.02276897
%%%mzn-stat: objective=184
%%%mzn-stat: nodes=365773
%%%mzn-stat: restarts=267
%%%mzn-stat: peakDepth=1078
%%%mzn-stat: solveTime=94.612090564
%%%mzn-stat: variables=1778
%%%mzn-stat: propagators=6364
%%%mzn-stat: failures=224872
%%%mzn-stat: propagations=109058672
%%%mzn-stat: nogoods=224872
%%%mzn-stat: AverageConflictSize=18.145967483724075
%%%mzn-stat: NumUnitNogoodsLearned=138
%%%mzn-stat: AverageLearnedNogoodLength=50.86182361521221
%%%mzn-stat: AverageBacktrackAmount=0
%%%mzn-stat: AverageLbd=11.290098367071044
%%%mzn-stat-end
maxleg = 184;
succ = array1d(1..100,[75, 5, 83, 11, 29, 61, 98, 49, 81, 96, 13, 17, 23, 70, 35, 79, 77, 15, 40, 25, 71, 90, 84, 38, 87, 80, 2, 91, 34, 41, 20, 28, 59, 64, 73, 1, 68, 88, 55, 89, 62, 48, 19, 30, 92, 31, 85, 6, 26, 82, 93, 76, 12, 53, 16, 33, 43, 51, 65, 4, 86, 9, 78, 24, 72, 63, 46, 14, 95, 52, 60, 10, 74, 27, 18, 56, 45, 67, 66, 94, 32, 3, 21, 7, 57, 44, 37, 47, 50, 39, 54, 99, 36, 69, 58, 8, 22, 100, 97, 42]);
% time elapsed: 96.05 s
----------
%%%mzn-stat: initTime=0.02276897
%%%mzn-stat: objective=183
%%%mzn-stat: nodes=366718
%%%mzn-stat: restarts=268
%%%mzn-stat: peakDepth=1078
%%%mzn-stat: solveTime=94.65646784
%%%mzn-stat: variables=1778
%%%mzn-stat: propagators=6364
%%%mzn-stat: failures=224928
%%%mzn-stat: propagations=109098629
%%%mzn-stat: nogoods=224928
%%%mzn-stat: AverageConflictSize=18.143405889884765
%%%mzn-stat: NumUnitNogoodsLearned=138
%%%mzn-stat: AverageLearnedNogoodLength=50.85983070138
%%%mzn-stat: AverageBacktrackAmount=0
%%%mzn-stat: AverageLbd=11.290759709773795
%%%mzn-stat-end
maxleg = 183;
succ = array1d(1..100,[75, 5, 83, 11, 29, 98, 86, 63, 81, 96, 13, 17, 23, 72, 35, 79, 77, 15, 40, 25, 71, 90, 84, 38, 87, 80, 2, 91, 34, 41, 20, 28, 70, 64, 73, 1, 68, 88, 55, 89, 62, 6, 61, 30, 92, 31, 85, 100, 26, 82, 93, 76, 12, 53, 16, 33, 43, 51, 65, 4, 19, 9, 49, 24, 52, 78, 46, 14, 95, 10, 60, 59, 48, 27, 18, 56, 45, 67, 66, 94, 32, 3, 21, 7, 57, 44, 37, 47, 50, 39, 54, 99, 36, 69, 58, 8, 22, 74, 97, 42]);
% time elapsed: 96.10 s
----------
%%%mzn-stat: initTime=0.02276897
%%%mzn-stat: objective=168
%%%mzn-stat: nodes=369921
%%%mzn-stat: restarts=274
%%%mzn-stat: peakDepth=1078
%%%mzn-stat: solveTime=95.138392459
%%%mzn-stat: variables=1778
%%%mzn-stat: propagators=6364
%%%mzn-stat: failures=225736
%%%mzn-stat: propagations=109580630
%%%mzn-stat: nogoods=225736
%%%mzn-stat: AverageConflictSize=18.137213382003758
%%%mzn-stat: NumUnitNogoodsLearned=138
%%%mzn-stat: AverageLearnedNogoodLength=50.874672183435514
%%%mzn-stat: AverageBacktrackAmount=0
%%%mzn-stat: AverageLbd=11.29309015841514
%%%mzn-stat-end
maxleg = 168;
succ = array1d(1..100,[34, 93, 83, 11, 29, 57, 86, 94, 53, 96, 13, 92, 23, 8, 47, 97, 77, 15, 40, 31, 71, 16, 82, 88, 66, 80, 2, 17, 27, 41, 25, 91, 76, 64, 75, 5, 68, 18, 55, 89, 81, 6, 61, 30, 90, 87, 85, 98, 63, 19, 58, 72, 12, 28, 22, 70, 43, 36, 65, 7, 50, 9, 78, 24, 33, 46, 20, 10, 95, 14, 60, 59, 35, 48, 1, 56, 45, 67, 49, 84, 32, 3, 21, 4, 100, 44, 37, 38, 62, 39, 54, 99, 74, 69, 51, 52, 79, 73, 26, 42]);
% time elapsed: 96.59 s
----------
%%%mzn-stat: initTime=0.02276897
%%%mzn-stat: objective=166
%%%mzn-stat: nodes=372571
%%%mzn-stat: restarts=279
%%%mzn-stat: peakDepth=1078
%%%mzn-stat: solveTime=95.380329159
%%%mzn-stat: variables=1778
%%%mzn-stat: propagators=6364
%%%mzn-stat: failures=226118
%%%mzn-stat: propagations=109883223
%%%mzn-stat: nogoods=226118
%%%mzn-stat: AverageConflictSize=18.127031019202363
%%%mzn-stat: NumUnitNogoodsLearned=138
%%%mzn-stat: AverageLearnedNogoodLength=50.871571480377504
%%%mzn-stat: AverageBacktrackAmount=0
%%%mzn-stat: AverageLbd=11.297733926533933
%%%mzn-stat-end
maxleg = 166;
succ = array1d(1..100,[34, 93, 83, 11, 29, 57, 86, 94, 53, 96, 13, 92, 23, 8, 47, 97, 77, 15, 40, 31, 71, 16, 82, 88, 66, 80, 2, 17, 27, 41, 25, 91, 76, 64, 75, 5, 68, 18, 55, 62, 81, 6, 61, 30, 90, 87, 85, 98, 63, 19, 58, 72, 12, 28, 22, 70, 43, 36, 65, 7, 50, 9, 78, 24, 33, 46, 20, 10, 95, 14, 60, 59, 35, 48, 1, 56, 45, 67, 49, 84, 32, 89, 21, 4, 100, 44, 37, 38, 3, 39, 54, 99, 74, 69, 51, 52, 79, 73, 26, 42]);
% time elapsed: 96.83 s
----------
%%%mzn-stat: initTime=0.02276897
%%%mzn-stat: objective=165
%%%mzn-stat: nodes=375962
%%%mzn-stat: restarts=282
%%%mzn-stat: peakDepth=1078
%%%mzn-stat: solveTime=96.172963142
%%%mzn-stat: variables=1778
%%%mzn-stat: propagators=6364
%%%mzn-stat: failures=227073
%%%mzn-stat: propagations=110370137
%%%mzn-stat: nogoods=227073
%%%mzn-stat: AverageConflictSize=18.300374769347304
%%%mzn-stat: NumUnitNogoodsLearned=138
%%%mzn-stat: AverageLearnedNogoodLength=51.44078776428726
%%%mzn-stat: AverageBacktrackAmount=0
%%%mzn-stat: AverageLbd=11.296895711951663
%%%mzn-stat-end
maxleg = 165;
succ = array1d(1..100,[34, 93, 83, 11, 29, 57, 86, 94, 53, 96, 13, 92, 23, 8, 47, 97, 45, 15, 40, 31, 71, 16, 82, 88, 66, 80, 2, 17, 27, 41, 25, 91, 76, 64, 75, 5, 68, 18, 55, 62, 81, 6, 61, 30, 90, 87, 85, 98, 63, 19, 58, 72, 12, 28, 22, 70, 43, 36, 65, 7, 50, 9, 78, 24, 33, 46, 20, 10, 95, 14, 60, 59, 35, 48, 1, 56, 99, 67, 49, 84, 32, 89, 21, 4, 100, 44, 37, 38, 3, 39, 54, 77, 74, 69, 51, 52, 79, 73, 26, 42]);
% time elapsed: 97.63 s
----------
%%%mzn-stat: initTime=0.02276897
%%%mzn-stat: objective=164
%%%mzn-stat: nodes=377202
%%%mzn-stat: restarts=283
%%%mzn-stat: peakDepth=1078
%%%mzn-stat: solveTime=96.288816047
%%%mzn-stat: variables=1778
%%%mzn-stat: propagators=6364
%%%mzn-stat: failures=227292
%%%mzn-stat: propagations=110478714
%%%mzn-stat: nogoods=227292
%%%mzn-stat: AverageConflictSize=18.29628407511043
%%%mzn-stat: NumUnitNogoodsLearned=138
%%%mzn-stat: AverageLearnedNogoodLength=51.43907396652764
%%%mzn-stat: AverageBacktrackAmount=0
%%%mzn-stat: AverageLbd=11.297137602731288
%%%mzn-stat-end
maxleg = 164;
succ = array1d(1..100,[34, 93, 83, 11, 29, 57, 86, 94, 53, 96, 13, 92, 23, 8, 47, 97, 45, 38, 40, 31, 71, 16, 82, 100, 66, 80, 2, 17, 27, 41, 25, 91, 76, 64, 75, 5, 68, 15, 55, 62, 81, 6, 61, 30, 90, 87, 85, 98, 63, 19, 58, 72, 12, 28, 22, 70, 43, 36, 65, 7, 50, 9, 78, 18, 33, 46, 20, 10, 95, 14, 60, 59, 35, 48, 1, 56, 99, 67, 49, 84, 32, 89, 21, 4, 88, 44, 37, 24, 3, 39, 54, 77, 74, 69, 51, 52, 79, 73, 26, 42]);
% time elapsed: 97.76 s
----------
=====ERROR=====
% time elapsed: 1671.72 s
